solution status: time limit reached
objective value:                                   95
shell_i_$_60                                        1 	(obj:0)
shell_i_$_202__8                                    1 	(obj:0)
shell_i_$_212                                       1 	(obj:0)
shell_i_$_183                                       1 	(obj:0)
shell_j_$_160                                       1 	(obj:0)
shell_i_$_206                                       1 	(obj:0)
shell_i_$_281                                       1 	(obj:0)
shell_i_$_213__8                                    1 	(obj:0)
shell_j_$_213__8                                    1 	(obj:0)
shell_j_$_236__8                                    1 	(obj:0)
shell_i_$_165                                       1 	(obj:0)
shell_i_$_280                                       1 	(obj:0)
shell_i_$_42                                        1 	(obj:0)
shell_i_$_64                                        1 	(obj:0)
shell_i_$_228                                       1 	(obj:0)
shell_i_$_31                                        1 	(obj:0)
shell_i_$_173                                       1 	(obj:0)
shell_i_$_187                                       1 	(obj:0)
shell_i_$_248                                       1 	(obj:0)
shell_j_$_164__8                                    1 	(obj:0)
shell_i_$_63                                        1 	(obj:0)
shell_i_$_211                                       1 	(obj:0)
shell_j_$_53                                        1 	(obj:0)
shell_i_$_201                                       1 	(obj:0)
shell_j_$_77                                        1 	(obj:0)
shell_i_$_245__8                                    1 	(obj:0)
shell_j_$_95                                        1 	(obj:0)
shell_i_$_246__8                                    1 	(obj:0)
shell_i_$_269                                       1 	(obj:0)
shell_i_$_101                                       1 	(obj:0)
shell_i_$_244__8                                    1 	(obj:0)
shell_i_$_89                                        1 	(obj:0)
shell_j_$_89                                        1 	(obj:0)
shell_i_$_254__8                                    1 	(obj:0)
shell_i_$_76                                        1 	(obj:0)
shell_i_$_204__8                                    1 	(obj:0)
shell_j_$_146                                       1 	(obj:0)
shell_i_$_41                                        1 	(obj:0)
shell_i_$_171                                       1 	(obj:0)
shell_i_$_242                                       1 	(obj:0)
shell_i_$_205__8                                    1 	(obj:0)
shell_i_$_98                                        1 	(obj:0)
shell_i_$_151                                       1 	(obj:0)
shell_i_$_170                                       1 	(obj:0)
shell_i_$_238__8                                    1 	(obj:0)
shell_i_$_162__8                                    1 	(obj:0)
shell_i_$_55                                        1 	(obj:0)
shell_i_$_195__8                                    1 	(obj:0)
shell_j_$_195__8                                    1 	(obj:0)
shell_i_$_233                                       1 	(obj:0)
shell_i_$_100                                       1 	(obj:0)
shell_i_$_161__8                                    1 	(obj:0)
shell_j_$_99                                        1 	(obj:0)
shell_i_$_265                                       1 	(obj:0)
shell_i_$_88                                        1 	(obj:0)
shell_i_$_192                                       1 	(obj:0)
shell_i_$_30                                        1 	(obj:0)
shell_i_$_158                                       1 	(obj:0)
shell_i_$_253                                       1 	(obj:0)
shell_i_$_214                                       1 	(obj:0)
shell_i_$_54                                        1 	(obj:0)
shell_i_$_240                                       1 	(obj:0)
shell_i_$_203__8                                    1 	(obj:0)
shell_i_$_172__8                                    1 	(obj:0)
shell_j_$_172__8                                    1 	(obj:0)
shell_i_$_224                                       1 	(obj:0)
shell_i_$_38                                        1 	(obj:0)
shell_i_$_283                                       1 	(obj:0)
shell_j_$_33                                        1 	(obj:0)
shell_i_$_274                                       1 	(obj:0)
shell_i_$_32                                        1 	(obj:0)
shell_i_$_252                                       1 	(obj:0)
shell_i_$_243__8                                    1 	(obj:0)
shell_i_$_154__8                                    1 	(obj:0)
shell_i_$_52                                        1 	(obj:0)
shell_i_$_197__8                                    1 	(obj:0)
shell_i_$_94                                        1 	(obj:0)
shell_i_$_207                                       1 	(obj:0)
shell_i_$_166                                       1 	(obj:0)
shell_i_$_255                                       1 	(obj:0)
shell_i_$_199                                       1 	(obj:0)
shell_i_$_163__8                                    1 	(obj:0)
shell_i_$_156__8                                    1 	(obj:0)
shell_i_$_247                                       1 	(obj:0)
$_76_x                                             10 	(obj:0)
$_76_y                                              4 	(obj:0)
$_76_z                                              7 	(obj:0)
$_206_x                                            10 	(obj:0)
$_228_x                                            10 	(obj:0)
$_204__8_x                                         10 	(obj:0)
$_204__8_y                                          3 	(obj:0)
$_204__8_z                                        -12 	(obj:0)
$_228_y                                             5 	(obj:0)
$_228_z                                            -3 	(obj:0)
$_146_x                                            10 	(obj:0)
$_146_y                                            10 	(obj:0)
$_146_z                                            -8 	(obj:0)
$_206_y                                             6 	(obj:0)
$_206_z                                           -13 	(obj:0)
$_41_x                                             10 	(obj:0)
$_41_y                                              7 	(obj:0)
$_41_z                                             -6 	(obj:0)
$_31_x                                             10 	(obj:0)
$_31_y                                              6 	(obj:0)
$_171_x                                            10 	(obj:0)
$_171_y                                             6 	(obj:0)
$_171_z                                            -7 	(obj:0)
$_31_z                                            -19 	(obj:0)
$_212_x                                            10 	(obj:0)
$_242_x                                            10 	(obj:0)
$_242_y                                             7 	(obj:0)
$_242_z                                             4 	(obj:0)
$_212_y                                             6 	(obj:0)
$_173_x                                            10 	(obj:0)
$_205__8_x                                         10 	(obj:0)
$_205__8_y                                          5 	(obj:0)
$_205__8_z                                        -15 	(obj:0)
$_173_y                                             7 	(obj:0)
$_173_z                                            -3 	(obj:0)
$_98_x                                             10 	(obj:0)
$_98_y                                              4 	(obj:0)
$_98_z                                              4 	(obj:0)
$_281_x                                            10 	(obj:0)
$_281_y                                             7 	(obj:0)
$_151_x                                            10 	(obj:0)
$_151_y                                             7 	(obj:0)
$_187_x                                            10 	(obj:0)
$_187_y                                             9 	(obj:0)
$_170_x                                            10 	(obj:0)
$_170_y                                             9 	(obj:0)
$_170_z                                            -4 	(obj:0)
$_187_z                                            -5 	(obj:0)
$_281_z                                            -7 	(obj:0)
$_238__8_x                                         10 	(obj:0)
$_238__8_y                                          9 	(obj:0)
$_238__8_z                                         -8 	(obj:0)
$_212_z                                            -3 	(obj:0)
$_248_x                                            10 	(obj:0)
$_162__8_x                                         10 	(obj:0)
$_162__8_y                                          1 	(obj:0)
$_162__8_z                                          4 	(obj:0)
$_248_y                                             6 	(obj:0)
$_248_z                                           -11 	(obj:0)
$_55_x                                             10 	(obj:0)
$_55_y                                              4 	(obj:0)
$_55_z                                             -8 	(obj:0)
$_60_y                                              3 	(obj:0)
$_213__8_x                                         10 	(obj:0)
$_195__8_x                                         10 	(obj:0)
$_195__8_y                                         10 	(obj:0)
$_195__8_z                                          8 	(obj:0)
$_164__8_x                                          9 	(obj:0)
$_164__8_y                                         10 	(obj:0)
$_233_x                                            10 	(obj:0)
$_233_y                                             7 	(obj:0)
$_233_z                                             6 	(obj:0)
$_164__8_z                                        -19 	(obj:0)
$_213__8_y                                         10 	(obj:0)
$_100_x                                            10 	(obj:0)
$_100_y                                             7 	(obj:0)
$_100_z                                            12 	(obj:0)
$_213__8_z                                         -1 	(obj:0)
$_63_x                                             10 	(obj:0)
$_161__8_x                                         10 	(obj:0)
$_161__8_y                                          7 	(obj:0)
$_161__8_z                                         -1 	(obj:0)
$_63_y                                              7 	(obj:0)
$_63_z                                              9 	(obj:0)
$_99_x                                             10 	(obj:0)
$_99_y                                             10 	(obj:0)
$_99_z                                             -7 	(obj:0)
$_202__8_x                                         10 	(obj:0)
$_183_x                                            10 	(obj:0)
$_265_x                                            10 	(obj:0)
$_265_y                                             7 	(obj:0)
$_265_z                                            10 	(obj:0)
$_211_x                                            10 	(obj:0)
$_211_y                                             8 	(obj:0)
$_88_x                                             10 	(obj:0)
$_88_y                                              7 	(obj:0)
$_88_z                                             -8 	(obj:0)
$_211_z                                            -1 	(obj:0)
$_236__8_x                                          8 	(obj:0)
$_192_x                                            10 	(obj:0)
$_192_y                                             5 	(obj:0)
$_192_z                                             4 	(obj:0)
$_236__8_y                                         10 	(obj:0)
$_53_x                                             10 	(obj:0)
$_30_x                                             10 	(obj:0)
$_30_y                                              1 	(obj:0)
$_30_z                                              3 	(obj:0)
$_53_y                                             10 	(obj:0)
$_53_z                                             -4 	(obj:0)
$_158_x                                            10 	(obj:0)
$_158_y                                             7 	(obj:0)
$_158_z                                            -4 	(obj:0)
$_236__8_z                                         12 	(obj:0)
$_183_y                                             5 	(obj:0)
$_253_x                                            10 	(obj:0)
$_253_y                                             4 	(obj:0)
$_253_z                                             1 	(obj:0)
$_201_x                                            10 	(obj:0)
$_201_y                                             6 	(obj:0)
$_214_x                                            10 	(obj:0)
$_214_y                                             4 	(obj:0)
$_183_z                                             2 	(obj:0)
$_54_x                                             10 	(obj:0)
$_54_y                                              3 	(obj:0)
$_54_z                                             -4 	(obj:0)
$_165_x                                            10 	(obj:0)
$_77_x                                             10 	(obj:0)
$_240_x                                            10 	(obj:0)
$_240_y                                             6 	(obj:0)
$_240_z                                             4 	(obj:0)
$_77_y                                             10 	(obj:0)
$_77_z                                             -5 	(obj:0)
$_203__8_x                                         10 	(obj:0)
$_203__8_y                                          5 	(obj:0)
$_203__8_z                                          8 	(obj:0)
$_165_y                                             9 	(obj:0)
$_165_z                                           -17 	(obj:0)
$_172__8_x                                         10 	(obj:0)
$_172__8_y                                         10 	(obj:0)
$_172__8_z                                         -3 	(obj:0)
$_245__8_x                                         10 	(obj:0)
$_245__8_y                                          5 	(obj:0)
$_224_x                                            10 	(obj:0)
$_224_y                                             6 	(obj:0)
$_224_z                                             6 	(obj:0)
$_245__8_z                                         -8 	(obj:0)
$_202__8_y                                          7 	(obj:0)
$_38_x                                             10 	(obj:0)
$_38_y                                              8 	(obj:0)
$_38_z                                             -5 	(obj:0)
$_202__8_z                                          2 	(obj:0)
$_95_x                                              9 	(obj:0)
$_283_x                                            10 	(obj:0)
$_283_y                                             6 	(obj:0)
$_283_z                                             3 	(obj:0)
$_95_y                                             10 	(obj:0)
$_95_z                                             -7 	(obj:0)
$_33_x                                             10 	(obj:0)
$_33_y                                             10 	(obj:0)
$_33_z                                            -16 	(obj:0)
$_280_x                                            10 	(obj:0)
$_280_y                                             7 	(obj:0)
$_274_x                                            10 	(obj:0)
$_274_y                                             8 	(obj:0)
$_274_z                                            11 	(obj:0)
$_246__8_x                                         10 	(obj:0)
$_246__8_y                                          4 	(obj:0)
$_32_x                                             10 	(obj:0)
$_32_y                                              8 	(obj:0)
$_32_z                                            -16 	(obj:0)
$_246__8_z                                        -13 	(obj:0)
$_280_z                                             7 	(obj:0)
$_252_x                                            10 	(obj:0)
$_252_y                                             7 	(obj:0)
$_252_z                                             1 	(obj:0)
$_160_x                                             9 	(obj:0)
$_269_x                                            10 	(obj:0)
$_243__8_x                                         10 	(obj:0)
$_243__8_y                                          9 	(obj:0)
$_243__8_z                                          4 	(obj:0)
$_269_y                                             6 	(obj:0)
$_269_z                                             1 	(obj:0)
$_154__8_x                                         10 	(obj:0)
$_154__8_y                                          5 	(obj:0)
$_154__8_z                                          6 	(obj:0)
$_160_y                                            10 	(obj:0)
$_42_x                                             10 	(obj:0)
$_52_x                                             10 	(obj:0)
$_52_y                                              8 	(obj:0)
$_52_z                                             16 	(obj:0)
$_101_x                                            10 	(obj:0)
$_101_y                                             5 	(obj:0)
$_197__8_x                                         10 	(obj:0)
$_197__8_y                                          5 	(obj:0)
$_197__8_z                                        -12 	(obj:0)
$_42_y                                              1 	(obj:0)
$_94_x                                             10 	(obj:0)
$_94_y                                              5 	(obj:0)
$_94_z                                              3 	(obj:0)
$_42_z                                              6 	(obj:0)
$_244__8_x                                         10 	(obj:0)
$_207_x                                            10 	(obj:0)
$_207_y                                             6 	(obj:0)
$_207_z                                           -15 	(obj:0)
$_244__8_y                                          3 	(obj:0)
$_244__8_z                                         12 	(obj:0)
$_166_x                                            10 	(obj:0)
$_166_y                                             9 	(obj:0)
$_166_z                                           -16 	(obj:0)
$_160_z                                            -3 	(obj:0)
$_60_z                                              7 	(obj:0)
$_255_x                                            10 	(obj:0)
$_255_y                                             8 	(obj:0)
$_255_z                                             4 	(obj:0)
$_89_x                                             10 	(obj:0)
$_89_y                                             10 	(obj:0)
$_199_x                                            10 	(obj:0)
$_199_y                                             8 	(obj:0)
$_89_z                                            -19 	(obj:0)
$_64_x                                             10 	(obj:0)
$_163__8_x                                         10 	(obj:0)
$_163__8_y                                          6 	(obj:0)
$_163__8_z                                        -17 	(obj:0)
$_64_y                                              2 	(obj:0)
$_254__8_x                                         10 	(obj:0)
$_156__8_x                                         10 	(obj:0)
$_156__8_y                                          8 	(obj:0)
$_156__8_z                                        -17 	(obj:0)
$_254__8_y                                          8 	(obj:0)
$_254__8_z                                          1 	(obj:0)
$_247_x                                            10 	(obj:0)
$_247_y                                             7 	(obj:0)
$_247_z                                           -10 	(obj:0)
$_64_z                                             16 	(obj:0)
$_60_x                                             10 	(obj:0)
x407                                                2 	(obj:1)
x408                                                4 	(obj:1)
x418                                                2 	(obj:1)
x419                                                1 	(obj:1)
x424                                                2 	(obj:1)
x430                                                1 	(obj:1)
x439                                                2 	(obj:1)
x441                                                2 	(obj:1)
x453                                                4 	(obj:1)
x459                                                3 	(obj:1)
x460                                                2 	(obj:1)
x464                                                2 	(obj:1)
x465                                                1 	(obj:1)
x470                                                1 	(obj:1)
x476                                                2 	(obj:1)
x477                                                2 	(obj:1)
x478                                                2 	(obj:1)
x494                                                1 	(obj:1)
x505                                                1 	(obj:1)
x516                                                2 	(obj:1)
x528                                                4 	(obj:1)
x531                                                4 	(obj:1)
x540                                                2 	(obj:1)
x543                                                1 	(obj:1)
x544                                                1 	(obj:1)
x546                                                1 	(obj:1)
x547                                                2 	(obj:1)
x548                                                2 	(obj:1)
x549                                                1 	(obj:1)
x565                                                2 	(obj:1)
x580                                                2 	(obj:1)
x591                                                3 	(obj:1)
x595                                                2 	(obj:1)
x597                                                4 	(obj:1)
x600                                                2 	(obj:1)
x603                                                2 	(obj:1)
x604                                                1 	(obj:1)
x606                                                2 	(obj:1)
x616                                                2 	(obj:1)
x628                                                2 	(obj:1)
x637                                                1 	(obj:1)
x643                                                1 	(obj:1)
x648                                                1 	(obj:1)
x651                                                1 	(obj:1)
x652                                                1 	(obj:1)
x654                                                1 	(obj:1)
x673                                                3 	(obj:1)
x676                                                2 	(obj:1)
x685                                                2 	(obj:1)
x694                                                1 	(obj:1)
